
Gurobi 10.0.3 (linux64, gurobi_cl) logging started Thu Nov  9 11:54:17 2023

Set parameter Username
Set parameter TimeLimit to value 3600
Set parameter LogFile to value "RCPSP_1324.log"
Set parameter Threads to value 32
Academic license - for non-commercial use only - expires 2024-11-06
Using license file /home/jrivera6/gurobi-licenses/v1003/compute-0-36/gurobi.lic

Gurobi Optimizer version 10.0.3 build v10.0.3rc0 (linux64)
Copyright (c) 2023, Gurobi Optimization, LLC

Read MPS format model from file RCPSP_1324.mps
Reading time = 0.06 seconds
RCPSP_1324: 42975 rows, 17020 columns, 142890 nonzeros

CPU model: Intel(R) Xeon(R) Gold 6130 CPU @ 2.10GHz, instruction set [SSE2|AVX|AVX2|AVX512]
Thread count: 32 physical cores, 32 logical processors, using up to 32 threads

Optimize a model with 42975 rows, 17020 columns and 142890 nonzeros
Model fingerprint: 0xf4b4a185
Variable types: 92 continuous, 16928 integer (16928 binary)
Coefficient statistics:
  Matrix range     [1e+00, 5e+02]
  Objective range  [1e+00, 1e+00]
  Bounds range     [1e+00, 1e+00]
  RHS range        [1e+00, 5e+02]
Presolve removed 9923 rows and 2444 columns (presolve time = 5s) ...
Presolve removed 15225 rows and 4509 columns
Presolve time: 9.69s
Presolved: 27750 rows, 12511 columns, 94872 nonzeros
Variable types: 91 continuous, 12420 integer (12420 binary)

Root simplex log...

Iteration    Objective       Primal Inf.    Dual Inf.      Time
       0    8.6000000e+01   9.391062e+04   0.000000e+00     10s
    4053    8.6000000e+01   0.000000e+00   0.000000e+00     10s

Root relaxation: objective 8.600000e+01, 4053 iterations, 0.20 seconds (0.06 work units)

    Nodes    |    Current Node    |     Objective Bounds      |     Work
 Expl Unexpl |  Obj  Depth IntInf | Incumbent    BestBd   Gap | It/Node Time

     0     0   86.00000    0  571          -   86.00000      -     -   14s
     0     0   87.00000    0  525          -   87.00000      -     -   14s
     0     0   87.00000    0 1317          -   87.00000      -     -   35s
     0     0   87.00000    0 1211          -   87.00000      -     -   37s
     0     0   87.00000    0 1184          -   87.00000      -     -   39s
     0     0   87.00000    0 1172          -   87.00000      -     -   40s
     0     0   87.00000    0 1178          -   87.00000      -     -   41s
     0     0   87.00000    0 1131          -   87.00000      -     -   42s
     0     0   87.00000    0 1018          -   87.00000      -     -   50s
     0     0   87.74772    0  523          -   87.74772      -     -   62s
     0     0   87.74772    0  505          -   87.74772      -     -   63s
     0     0   87.74826    0  744          -   87.74826      -     -   67s
     0     0   87.74826    0  708          -   87.74826      -     -   67s
     0     0   89.33293    0  786          -   89.33293      -     -   70s
     0     0   89.33293    0  782          -   89.33293      -     -   70s
     0     0   89.33293    0  821          -   89.33293      -     -   71s
     0     0   89.33293    0  817          -   89.33293      -     -   71s
     0     0   90.39383    0  847          -   90.39383      -     -   74s
     0     0   90.39383    0  845          -   90.39383      -     -   74s
     0     0   90.39383    0  810          -   90.39383      -     -   76s
     0     0   90.39383    0  807          -   90.39383      -     -   76s
     0     0   90.39383    0  845          -   90.39383      -     -   81s
     0     0   90.39383    0  831          -   90.39383      -     -   82s
     0     0   90.39383    0  813          -   90.39383      -     -   83s
     0     0   90.39383    0  839          -   90.39383      -     -   88s
     0     0   90.39383    0  321          -   90.39383      -     -  102s
     0     0   90.39383    0  637          -   90.39383      -     -  105s
     0     0   90.39383    0  466          -   90.39383      -     -  117s
     0     0   90.39383    0  466          -   90.39383      -     -  117s
     0     0   90.39383    0  687          -   90.39383      -     -  127s
     0     0   90.39383    0  566          -   90.39383      -     -  136s
     0     0   90.39383    0  564          -   90.39383      -     -  136s
     0     0   90.39383    0  830          -   90.39383      -     -  137s
     0     0   90.39383    0  828          -   90.39383      -     -  137s
     0     0   90.39383    0  282          -   90.39383      -     -  152s
     0     0   90.39383    0  684          -   90.39383      -     -  159s
     0     0   90.39383    0  386          -   90.39383      -     -  168s
     0     0   90.39383    0  385          -   90.39383      -     -  168s
H    0     0                     463.0000000   90.39383  80.5%     -  174s
     0     0   90.39383    0  385  463.00000   90.39383  80.5%     -  175s
H    0     0                     385.0000000   90.39383  76.5%     -  192s
H    0     2                     347.0000000   90.39383  73.9%     -  234s
     0     2   90.39383    0  300  347.00000   90.39383  73.9%     -  234s
     1     4   90.87019    1  291  347.00000   90.87019  73.8%  4243  243s
     3     7   91.07692    2  579  347.00000   91.07692  73.8%  2166  261s
     7    12   94.00000    3  707  347.00000   94.00000  72.9%  1717  307s
    14    20   94.00000    4  757  347.00000   94.00000  72.9%  1451  319s
H   26    33                     315.0000000   94.00000  70.2%  1286  378s
H   29    33                     309.0000000   94.00000  69.6%  1259  378s
H   34    33                     305.0000000   94.00000  69.2%  1162  379s
    46    46   94.00000    6  719  305.00000   94.00000  69.2%  1155  428s
    78    73   94.00000    7  754  305.00000   94.00000  69.2%   995  475s
   110   104   94.00000    8  851  305.00000   94.00000  69.2%   937  486s
   142   132   94.00000    9  849  305.00000   94.00000  69.2%   846  494s
   174   166   94.00000   10  906  305.00000   94.00000  69.2%   717  515s
   217   205   94.00000   11  889  305.00000   94.00000  69.2%   606  520s
   266   247   94.00000   12  881  305.00000   94.00000  69.2%   515  526s
   319   298   94.40000   13  846  305.00000   94.00000  69.2%   440  535s
   376   347   95.00000   14  839  305.00000   94.00000  69.2%   386  541s
   430   407   95.00000   15  823  305.00000   94.00000  69.2%   349  551s
   493   458   95.16018   17  823  305.00000   94.00000  69.2%   313  939s
H  498   458                     281.0000000   94.00000  66.5%   311  939s
   551   487 infeasible   17       281.00000   94.00000  66.5%   288 1198s
H  552   487                     248.0000000   94.00000  62.1%   288 1198s
H  568   487                     237.0000000   94.00000  60.3%   288 1199s
   584   562   94.19169    9  807  237.00000   94.00000  60.3%   284 1215s
H  659   562                     235.0000000   94.00000  60.0%   269 1215s
   673   674   94.25532   10  780  235.00000   94.00000  60.0%   265 1223s
H  791   704                     185.0000000   94.00000  49.2%   235 2890s
H  792   704                     178.0000000   94.00000  47.2%   236 2899s
   793   704  113.00000   19  669  178.00000   94.00000  47.2%   237 2908s
H  798   704                     176.0000000   94.00000  46.6%   237 2935s
   823   834   99.00000   14  611  176.00000   94.00000  46.6%   236 3432s
   944   834  112.55556   22  650  176.00000   94.00000  46.6%   214 3436s
   963   982   99.00000   18  557  176.00000   94.00000  46.6%   211 3545s
  1129  1150   99.00000   22  553  176.00000   94.00000  46.6%   185 3579s
  1309  1342  107.00000   24  541  176.00000   94.00000  46.6%   163 3658s

Cutting planes:
  Gomory: 23
  Lift-and-project: 1
  Cover: 228
  Implied bound: 459
  Clique: 13
  MIR: 1553
  StrongCG: 44
  Zero half: 13
  RLT: 701
  Relax-and-lift: 202

Explored 1525 nodes (327133 simplex iterations) in 3723.87 seconds (84.03 work units)
Thread count was 32 (of 32 available processors)

Solution count 10: 176 178 185 ... 315

Time limit reached
Best objective 1.760000000000e+02, best bound 9.400000000000e+01, gap 46.5909%

Wrote result file 'RCPSP_1324.sol'

